30 6
15 4 13 8 10 6
001000000000000000000100000100
000000000000000011001000000000
100100000000000000100011000100
001000000000010000000000000000
000000001000000000000000000000
000000000000000000100000000000
000000000000000000000111100000
000000000101000000100000100000
000010000000000010000000000000
000000010010000000000011000010
000000000101000001010001010000
000000010010100000000000000000
000000000001000000111000000100
000100000000000000000000100001
000000000000000000000000100000
000000000000000000010010000000
010000001000000000000000000000
010000000010000000000010000000
001001010000100000001000000000
000000000010100100000000000000
010000000000100000100000000000
100000100000000000000000000000
001000100100000101000000000000
001000100110000000000000000000
000000110000011000000000000000
000000000010000000000000000000
000000000000000000000000000010
101000000000100000000000000000
000000000100000000000000001000
000000000000010000000000000000
